s td 870 2 1065
b 1 228 229
b 2 1 228
b 3 1 614
b 4 614 615
b 5 2
b 6 3
b 7 4 421
b 8 420 421
b 9 421
b 10 5 934
b 11 6
b 12 7
b 13 8
b 14 9 729
b 15 9 1028
b 16 10
b 17 11
b 18 268 269
b 19 12 269
b 20 12 354
b 21 816 817
b 22 13 816
b 23 13 954
b 24 954 955
b 25 14 712
b 26 15 713
b 27 16
b 28 17 937
b 29 18 237
b 30 236 237
b 31 237
b 32 19
b 33 20
b 34 21 1063
b 35 22 372
b 36 22 480
b 37 22 791
b 38 790 791
b 39 791
b 40 23 554
b 41 24
b 42 368 369
b 43 25 368
b 44 25 618
b 45 618 619
b 46 26 619
b 47 26 668
b 48 26 739
b 49 27 322
b 50 322 323
b 51 28 400
b 52 29 624
b 53 29 887
b 54 29 1051
b 55 30 590
b 56 30 625
b 57 31 230
b 58 31 741
b 59 31 804
b 60 32 1006
b 61 33 353
b 62 33 645
b 63 33 994
b 64 34 598
b 65 35
b 66 36 308
b 67 37 639
b 68 38 360
b 69 444 445
b 70 38 444
b 71 38 555
b 72 39
b 73 40 298
b 74 41 669
b 75 41 1032
b 76 486 487
b 77 42 487
b 78 42 1033
b 79 43 401
b 80 43 879
b 81 878 879
b 82 879
b 83 44 775
b 84 44 951
b 85 45 457
b 86 45 1058
b 87 46
b 88 47 1007
b 89 48 1031
b 90 49 342
b 91 50 385
b 92 51
b 93 52 370
b 94 52 540
b 95 52 853
b 96 852 853
b 97 853
b 98 53 361
b 99 632 633
b 100 54 632
b 101 794 795
b 102 54 795
b 103 54 922
b 104 55 670
b 105 55 743
b 106 55 923
b 107 56 849
b 108 57 408
b 109 58 1065
b 110 59 584
b 111 59 617
b 112 616 617
b 113 617
b 114 60
b 115 61 330
b 116 61 532
b 117 62 347
b 118 62 996
b 119 63
b 120 64
b 121 65 338
b 122 65 473
b 123 66 419
b 124 66 896
b 125 66 1022
b 126 67
b 127 68 947
b 128 69 535
b 129 534 535
b 130 535
b 131 70
b 132 71 260
b 133 72 409
b 134 640 641
b 135 72 641
b 136 72 824
b 137 72 1024
b 138 73 334
b 139 73 1025
b 140 74 770
b 141 75 410
b 142 76 448
b 143 356 357
b 144 77 357
b 145 77 462
b 146 77 910
b 147 78 911
b 148 79 259
b 149 258 259
b 150 259
b 151 80 339
b 152 81 325
b 153 82 546
b 154 390 391
b 155 83 390
b 156 83 705
b 157 84 676
b 158 85 981
b 159 86 658
b 160 102 365
b 161 116 233
b 162 232 233
b 163 101 232
b 164 364 365
b 165 101 364
b 166 101 659
b 167 658 659
b 168 659
b 169 87 383
b 170 382 383
b 171 383
b 172 88 569
b 173 88 694
b 174 89 771
b 175 90 1042
b 176 91 654
b 177 91 754
b 178 754 755
b 179 92 488
b 180 92 655
b 181 93 720
b 182 93 1055
b 183 94 716
b 184 95 276
b 185 95 717
b 186 96 964
b 187 97 547
b 188 98 279
b 189 98 524
b 190 350 351
b 191 128 350
b 192 524 525
b 193 113 525
b 194 128 778
b 195 128 815
b 196 814 815
b 197 113 814
b 198 113 863
b 199 99 242
b 200 99 413
b 201 99 869
b 202 100 699
b 203 698 699
b 204 699
b 205 103 718
b 206 562 563
b 207 104 562
b 208 104 649
b 209 105
b 210 106 264
b 211 107 489
b 212 107 526
b 213 107 898
b 214 109 767
b 215 108 721
b 216 108 766
b 217 766 767
b 218 767
b 219 110 987
b 220 111
b 221 112 235
b 222 112 707
b 223 112 862
b 224 114 468
b 225 114 901
b 226 115 251
b 227 115 566
b 228 566 567
b 229 130 567
b 230 130 872
b 231 872 873
b 232 117
b 233 133 495
b 234 494 495
b 235 118 494
b 236 118 719
b 237 119 417
b 238 119 1001
b 239 120
b 240 121 870
b 241 122
b 242 123 538
b 243 123 647
b 244 124 788
b 245 788 789
b 246 582 583
b 247 125 583
b 248 125 607
b 249 126
b 250 127 776
b 251 129 498
b 252 498 499
b 253 131 509
b 254 508 509
b 255 509
b 256 132 432
b 257 610 611
b 258 132 610
b 259 132 1039
b 260 1038 1039
b 261 1039
b 262 134 427
b 263 135 388
b 264 135 783
b 265 782 783
b 266 783
b 267 500 501
b 268 137 500
b 269 137 345
b 270 344 345
b 271 136 344
b 272 136 282
b 273 282 283
b 274 151 283
b 275 151 924
b 276 924 925
b 277 138 477
b 278 139 470
b 279 548 549
b 280 140 549
b 281 140 732
b 282 141 733
b 283 142 765
b 284 142 928
b 285 143 290
b 286 143 929
b 287 144 404
b 288 144 490
b 289 144 1013
b 290 1012 1013
b 291 1013
b 292 145 608
b 293 146
b 294 147 846
b 295 148 304
b 296 149 305
b 297 304 305
b 298 305
b 299 150
b 300 152 392
b 301 152 710
b 302 296 297
b 303 153 297
b 304 958 959
b 305 153 958
b 306 153 1036
b 307 154
b 308 155 912
b 309 156 484
b 310 157 485
b 311 484 485
b 312 485
b 313 158 977
b 314 976 977
b 315 977
b 316 159 856
b 317 160 281
b 318 161 979
b 319 978 979
b 320 979
b 321 162 386
b 322 642 643
b 323 162 643
b 324 162 652
b 325 163
b 326 164 942
b 327 942 943
b 328 165
b 329 166
b 330 168 571
b 331 167 359
b 332 570 571
b 333 167 570
b 334 167 711
b 335 169
b 336 170 536
b 337 171 933
b 338 171 962
b 339 962 963
b 340 300 301
b 341 172 300
b 342 172 514
b 343 172 521
b 344 173 515
b 345 173 914
b 346 173 1044
b 347 174 748
b 348 174 857
b 349 174 1045
b 350 175 916
b 351 916 917
b 352 176 622
b 353 622 623
b 354 177 516
b 355 177 883
b 356 178 517
b 357 178 522
b 358 179 523
b 359 179 890
b 360 180
b 361 181 446
b 362 182 660
b 363 183
b 364 184 990
b 365 184 1008
b 366 185
b 367 186 543
b 368 187 435
b 369 187 796
b 370 188 312
b 371 700 701
b 372 188 700
b 373 188 915
b 374 189 512
b 375 189 749
b 376 190 586
b 377 586 587
b 378 191
b 379 192 394
b 380 193 572
b 381 193 961
b 382 194 891
b 383 195 328
b 384 195 751
b 385 750 751
b 386 751
b 387 196
b 388 197 406
b 389 197 506
b 390 198 507
b 391 198 552
b 392 198 808
b 393 199 553
b 394 199 850
b 395 850 851
b 396 200 634
b 397 201 284
b 398 284 285
b 399 202
b 400 203
b 401 204 513
b 402 205 579
b 403 205 780
b 404 206 437
b 405 436 437
b 406 437
b 407 207 867
b 408 208 865
b 409 209
b 410 210 329
b 411 210 367
b 412 211
b 413 212
b 414 213 953
b 415 214
b 416 215 327
b 417 216
b 418 217 785
b 419 218 708
b 420 708 709
b 421 219 597
b 422 596 597
b 423 597
b 424 220 786
b 425 222 341
b 426 222 529
b 427 221 441
b 428 221 528
b 429 528 529
b 430 529
b 431 223 1026
b 432 888 889
b 433 224 889
b 434 224 1027
b 435 225 683
b 436 226 227
b 437 231
b 438 234
b 439 238
b 440 239
b 441 240
b 442 241
b 443 243
b 444 244
b 445 245
b 446 246
b 447 247
b 448 248
b 449 249
b 450 250
b 451 252
b 452 253
b 453 254
b 454 255
b 455 256 257
b 456 261
b 457 262
b 458 263
b 459 265
b 460 266
b 461 267
b 462 270
b 463 271
b 464 272
b 465 273
b 466 274
b 467 275
b 468 277
b 469 278
b 470 280
b 471 286 287
b 472 288 289
b 473 291
b 474 292 293
b 475 294
b 476 295
b 477 299
b 478 302
b 479 303
b 480 306
b 481 307
b 482 309
b 483 310
b 484 311
b 485 313
b 486 314
b 487 315
b 488 316 317
b 489 318 319
b 490 320 321
b 491 324
b 492 326
b 493 331
b 494 332
b 495 333
b 496 335
b 497 336
b 498 337
b 499 340
b 500 343
b 501 346
b 502 348 349
b 503 352
b 504 355
b 505 358
b 506 362
b 507 363
b 508 366
b 509 371
b 510 373
b 511 374 375
b 512 376
b 513 377
b 514 378
b 515 379
b 516 380
b 517 381
b 518 384
b 519 387
b 520 389
b 521 393
b 522 395
b 523 396
b 524 397
b 525 398
b 526 399
b 527 402
b 528 403
b 529 405
b 530 407
b 531 411
b 532 412
b 533 414
b 534 415
b 535 416
b 536 418
b 537 422
b 538 423
b 539 424 425
b 540 426
b 541 428 429
b 542 430
b 543 431
b 544 433
b 545 434
b 546 438
b 547 439
b 548 440
b 549 442
b 550 443
b 551 447
b 552 449
b 553 450
b 554 451
b 555 452
b 556 453
b 557 454 455
b 558 456
b 559 458 459
b 560 460
b 561 461
b 562 463
b 563 464
b 564 465
b 565 466
b 566 467
b 567 469
b 568 471
b 569 472
b 570 474
b 571 475
b 572 476
b 573 478 479
b 574 481
b 575 482 483
b 576 491
b 577 492 493
b 578 496
b 579 497
b 580 502
b 581 503
b 582 504
b 583 505
b 584 510 511
b 585 518
b 586 519
b 587 520
b 588 527
b 589 530
b 590 531
b 591 533
b 592 537
b 593 539
b 594 541
b 595 542
b 596 544
b 597 545
b 598 550
b 599 551
b 600 556
b 601 557
b 602 558
b 603 559
b 604 560 561
b 605 564
b 606 565
b 607 568
b 608 573
b 609 574
b 610 575
b 611 576
b 612 577
b 613 578
b 614 580
b 615 581
b 616 585
b 617 588 589
b 618 591
b 619 592
b 620 593
b 621 594
b 622 595
b 623 599
b 624 600 601
b 625 602
b 626 603
b 627 604
b 628 605
b 629 606
b 630 609
b 631 612
b 632 613
b 633 620
b 634 621
b 635 626 627
b 636 628
b 637 629
b 638 630
b 639 631
b 640 635
b 641 636 637
b 642 638
b 643 644
b 644 646
b 645 648
b 646 650
b 647 651
b 648 653
b 649 656
b 650 657
b 651 661
b 652 662
b 653 663
b 654 664
b 655 665
b 656 666 667
b 657 671
b 658 672
b 659 673
b 660 674 675
b 661 677
b 662 678
b 663 679
b 664 680 681
b 665 682
b 666 684
b 667 685
b 668 686
b 669 687
b 670 688 689
b 671 690
b 672 691
b 673 692 693
b 674 695
b 675 696
b 676 697
b 677 702
b 678 703
b 679 704
b 680 706
b 681 714
b 682 715
b 683 722
b 684 723
b 685 724
b 686 725
b 687 726
b 688 727
b 689 728
b 690 730
b 691 731
b 692 734
b 693 735
b 694 736 737
b 695 738
b 696 740
b 697 742
b 698 744
b 699 745
b 700 746
b 701 747
b 702 752 753
b 703 756 757
b 704 758
b 705 759
b 706 760
b 707 761
b 708 762
b 709 763
b 710 764
b 711 768
b 712 769
b 713 772
b 714 773
b 715 774
b 716 777
b 717 779
b 718 781
b 719 784
b 720 787
b 721 792 793
b 722 797
b 723 798
b 724 799
b 725 800
b 726 801
b 727 802 803
b 728 805
b 729 806
b 730 807
b 731 809
b 732 810
b 733 811
b 734 812 813
b 735 818
b 736 819
b 737 820
b 738 821
b 739 822 823
b 740 825
b 741 826 827
b 742 828
b 743 829
b 744 830
b 745 831
b 746 832 833
b 747 834
b 748 835
b 749 836
b 750 837
b 751 838
b 752 839
b 753 840 841
b 754 842 843
b 755 844
b 756 845
b 757 847
b 758 848
b 759 854
b 760 855
b 761 858
b 762 859
b 763 860
b 764 861
b 765 864
b 766 866
b 767 868
b 768 871
b 769 874 875
b 770 876 877
b 771 880 881
b 772 882
b 773 884 885
b 774 886
b 775 892
b 776 893
b 777 894
b 778 895
b 779 897
b 780 899
b 781 900
b 782 902
b 783 903
b 784 904
b 785 905
b 786 906
b 787 907
b 788 908
b 789 909
b 790 913
b 791 918
b 792 919
b 793 920
b 794 921
b 795 926 927
b 796 930
b 797 931
b 798 932
b 799 935
b 800 936
b 801 938
b 802 939
b 803 940
b 804 941
b 805 944
b 806 945
b 807 946
b 808 948
b 809 949
b 810 950
b 811 952
b 812 956
b 813 957
b 814 960
b 815 965
b 816 966 967
b 817 968
b 818 969
b 819 970
b 820 971
b 821 972
b 822 973
b 823 974
b 824 975
b 825 980
b 826 982
b 827 983
b 828 984
b 829 985
b 830 986
b 831 988
b 832 989
b 833 991
b 834 992 993
b 835 995
b 836 997
b 837 998
b 838 999
b 839 1000
b 840 1002
b 841 1003
b 842 1004 1005
b 843 1009
b 844 1010 1011
b 845 1014
b 846 1015
b 847 1016 1017
b 848 1018
b 849 1019
b 850 1020 1021
b 851 1023
b 852 1029
b 853 1030
b 854 1034
b 855 1035
b 856 1037
b 857 1040 1041
b 858 1043
b 859 1046 1047
b 860 1048
b 861 1049
b 862 1050
b 863 1052
b 864 1053
b 865 1054
b 866 1056 1057
b 867 1059
b 868 1060 1061
b 869 1062
b 870 1064
1 2
1 5
1 6
1 7
1 10
1 11
1 12
1 13
1 14
1 16
1 17
1 18
1 21
1 25
1 26
1 27
1 28
1 29
1 32
1 33
1 34
1 35
1 40
1 41
1 42
1 49
1 51
1 52
1 55
1 57
1 60
1 61
1 64
1 65
1 66
1 67
1 68
1 72
1 73
1 74
1 76
1 79
1 83
1 85
1 87
1 88
1 89
1 90
1 91
1 92
1 93
1 98
1 99
1 104
1 107
1 108
1 109
1 110
1 114
1 115
1 117
1 119
1 120
1 121
1 123
1 126
1 127
1 128
1 131
1 132
1 133
1 138
1 140
1 141
1 142
1 143
1 147
1 148
1 151
1 152
1 153
1 154
1 157
1 158
1 159
1 169
1 172
1 174
1 175
1 176
1 179
1 181
1 183
1 184
1 186
1 187
1 188
1 199
1 202
1 205
1 206
1 209
1 210
1 211
1 214
1 219
1 220
1 221
1 224
1 226
1 232
1 233
1 237
1 239
1 240
1 241
1 242
1 244
1 246
1 249
1 250
1 251
1 253
1 256
1 262
1 263
1 267
1 277
1 278
1 279
1 282
1 283
1 285
1 287
1 292
1 293
1 294
1 295
1 299
1 300
1 302
1 307
1 308
1 309
1 313
1 316
1 317
1 318
1 321
1 325
1 326
1 328
1 329
1 330
1 335
1 336
1 337
1 340
1 344
1 347
1 350
1 352
1 354
1 356
1 358
1 360
1 361
1 362
1 363
1 364
1 366
1 367
1 368
1 370
1 374
1 376
1 378
1 379
1 380
1 382
1 383
1 387
1 388
1 390
1 393
1 396
1 397
1 399
1 400
1 401
1 402
1 404
1 407
1 408
1 409
1 410
1 412
1 413
1 414
1 415
1 416
1 417
1 418
1 419
1 421
1 424
1 425
1 431
1 432
1 435
1 436
1 437
1 438
1 439
1 440
1 441
1 442
1 443
1 444
1 445
1 446
1 447
1 448
1 449
1 450
1 451
1 452
1 453
1 454
1 455
1 456
1 457
1 458
1 459
1 460
1 461
1 462
1 463
1 464
1 465
1 466
1 467
1 468
1 469
1 470
1 471
1 472
1 473
1 474
1 475
1 476
1 477
1 478
1 479
1 480
1 481
1 482
1 483
1 484
1 485
1 486
1 487
1 488
1 489
1 490
1 491
1 492
1 493
1 494
1 495
1 496
1 497
1 498
1 499
1 500
1 501
1 502
1 503
1 504
1 505
1 506
1 507
1 508
1 509
1 510
1 511
1 512
1 513
1 514
1 515
1 516
1 517
1 518
1 519
1 520
1 521
1 522
1 523
1 524
1 525
1 526
1 527
1 528
1 529
1 530
1 531
1 532
1 533
1 534
1 535
1 536
1 537
1 538
1 539
1 540
1 541
1 542
1 543
1 544
1 545
1 546
1 547
1 548
1 549
1 550
1 551
1 552
1 553
1 554
1 555
1 556
1 557
1 558
1 559
1 560
1 561
1 562
1 563
1 564
1 565
1 566
1 567
1 568
1 569
1 570
1 571
1 572
1 573
1 574
1 575
1 576
1 577
1 578
1 579
1 580
1 581
1 582
1 583
1 584
1 585
1 586
1 587
1 588
1 589
1 590
1 591
1 592
1 593
1 594
1 595
1 596
1 597
1 598
1 599
1 600
1 601
1 602
1 603
1 604
1 605
1 606
1 607
1 608
1 609
1 610
1 611
1 612
1 613
1 614
1 615
1 616
1 617
1 618
1 619
1 620
1 621
1 622
1 623
1 624
1 625
1 626
1 627
1 628
1 629
1 630
1 631
1 632
1 633
1 634
1 635
1 636
1 637
1 638
1 639
1 640
1 641
1 642
1 643
1 644
1 645
1 646
1 647
1 648
1 649
1 650
1 651
1 652
1 653
1 654
1 655
1 656
1 657
1 658
1 659
1 660
1 661
1 662
1 663
1 664
1 665
1 666
1 667
1 668
1 669
1 670
1 671
1 672
1 673
1 674
1 675
1 676
1 677
1 678
1 679
1 680
1 681
1 682
1 683
1 684
1 685
1 686
1 687
1 688
1 689
1 690
1 691
1 692
1 693
1 694
1 695
1 696
1 697
1 698
1 699
1 700
1 701
1 702
1 703
1 704
1 705
1 706
1 707
1 708
1 709
1 710
1 711
1 712
1 713
1 714
1 715
1 716
1 717
1 718
1 719
1 720
1 721
1 722
1 723
1 724
1 725
1 726
1 727
1 728
1 729
1 730
1 731
1 732
1 733
1 734
1 735
1 736
1 737
1 738
1 739
1 740
1 741
1 742
1 743
1 744
1 745
1 746
1 747
1 748
1 749
1 750
1 751
1 752
1 753
1 754
1 755
1 756
1 757
1 758
1 759
1 760
1 761
1 762
1 763
1 764
1 765
1 766
1 767
1 768
1 769
1 770
1 771
1 772
1 773
1 774
1 775
1 776
1 777
1 778
1 779
1 780
1 781
1 782
1 783
1 784
1 785
1 786
1 787
1 788
1 789
1 790
1 791
1 792
1 793
1 794
1 795
1 796
1 797
1 798
1 799
1 800
1 801
1 802
1 803
1 804
1 805
1 806
1 807
1 808
1 809
1 810
1 811
1 812
1 813
1 814
1 815
1 816
1 817
1 818
1 819
1 820
1 821
1 822
1 823
1 824
1 825
1 826
1 827
1 828
1 829
1 830
1 831
1 832
1 833
1 834
1 835
1 836
1 837
1 838
1 839
1 840
1 841
1 842
1 843
1 844
1 845
1 846
1 847
1 848
1 849
1 850
1 851
1 852
1 853
1 854
1 855
1 856
1 857
1 858
1 859
1 860
1 861
1 862
1 863
1 864
1 865
1 866
1 867
1 868
1 869
1 870
2 3
3 4
7 9
8 9
14 15
18 19
19 20
21 22
22 23
23 24
29 31
30 31
35 37
36 37
37 39
38 39
42 43
43 44
44 45
45 46
46 48
47 48
49 50
52 54
53 54
55 56
57 59
58 59
61 63
62 63
68 71
69 70
70 71
74 75
76 77
77 78
79 80
80 82
81 82
83 84
85 86
93 95
94 95
95 97
96 97
99 100
100 103
101 102
102 103
104 106
105 106
110 111
111 113
112 113
115 116
117 118
121 122
123 125
124 125
128 130
129 130
133 137
134 135
135 137
136 137
138 139
143 144
144 146
145 146
148 150
149 150
154 155
155 156
159 167
160 164
161 162
162 163
163 166
164 165
165 166
166 168
167 168
169 171
170 171
172 173
176 177
177 178
179 180
181 182
184 185
188 189
189 192
190 191
191 195
192 193
193 198
194 195
195 196
196 197
197 198
199 201
200 201
202 204
203 204
206 207
207 208
211 213
212 213
214 218
215 216
216 217
217 218
221 223
222 223
224 225
226 227
227 228
228 229
229 230
230 231
233 234
234 235
235 236
237 238
242 243
244 245
246 247
247 248
251 252
253 255
254 255
256 259
257 258
258 259
259 261
260 261
263 264
264 266
265 266
267 268
268 269
269 270
270 271
271 272
272 273
273 274
274 275
275 276
279 280
280 281
283 284
285 286
287 289
288 289
289 291
290 291
295 297
296 298
297 298
300 301
302 303
303 306
304 305
305 306
309 311
310 312
311 312
313 315
314 315
318 320
319 320
321 324
322 323
323 324
326 327
330 332
331 334
332 333
333 334
337 338
338 339
340 341
341 343
342 343
344 346
345 346
347 349
348 349
350 351
352 353
354 355
356 357
358 359
364 365
368 369
370 373
371 372
372 373
374 375
376 377
380 381
383 384
384 386
385 386
388 389
390 392
391 392
393 394
394 395
397 398
402 403
404 406
405 406
410 411
419 420
421 423
422 423
425 426
426 430
427 428
428 429
429 430
432 433
433 434
